# # # # # # # # # # # # # #    S H C   B E G I N S   # # # # # # # # # # # # # #
fermi_energy_min = -3.4822121462
fermi_energy_max =  0.5177878538
fermi_energy_step = 0.001
# shc_method = 'qiao'
# shc_temp = 0

berry = true
berry_task = shc
berry_kmesh = 420 420 1
kubo_adpt_smr = false
kubo_adpt_smr_fac = 1.414
kubo_smr_fixed_en_width = 2e-3
berry_curv_unit = ang2
berry_curv_adpt_kmesh = 1 1 1
berry_curv_adpt_kmesh_thresh = 100000.0

shc_freq_scan = false
shc_alpha = 1
shc_beta = 2
shc_gamma = 3
# # # # # # # # # # # # # #    S H C   E N D S   # # # # # # # # # # # # # #
#
# kmesh_tol = 1e-4
exclude_bands =  1 - 8
dis_froz_max = 4
# VBM = -1.514212
# CBM = -1.252212
# Bandgap = 0.262
# fermi_energy = -1.514212
# dis_win_min  = v_dis_win_min
# dis_win_max  = v_dis_win_max

write_tb = .true.
write_hr = .true.
write_rmn = .true.
write_xyz = .true.
use_ws_distance = .true.

dis_num_iter      = 0
dis_conv_tol      = 1.0e-10
conv_tol          = 1.0e-10
conv_window       = 5
num_iter          = 0
trial_step = 1.0

guiding_centres = .true.
begin projections
Bi:P
end projections

# restart = plot
bands_plot = true
bands_num_points = 100
begin kpoint_path
Y        0.00000000   0.50000000   0.00000000      M        0.50000000   0.50000000   0.00000000
M        0.50000000   0.50000000   0.00000000      X        0.50000000   0.00000000   0.00000000
X        0.50000000   0.00000000   0.00000000      G        0.00000000   0.00000000   0.00000000
G        0.00000000   0.00000000   0.00000000      Y        0.00000000   0.50000000   0.00000000
end kpoint_path

# This part was generated automatically by VASP
num_bands = 24
num_wann = 24
spinors = .true.
spn_formatted = .true.
begin unit_cell_cart
     4.5600000     0.0000000     0.0000000
     0.0000000     4.8900000     0.0000000
     0.0000000     0.0000000    23.9073539
end unit_cell_cart
begin atoms_cart
Bi       0.0000000     0.0009615     1.2907833
Bi       2.2800000     2.4459615    22.6165705
Bi       2.2800000     2.0714205     1.7775472
Bi       0.0000000     4.5164205    22.1298067
end atoms_cart
mp_grid =    10    10     1
begin kpoints
      0.000000000000      0.000000000000      0.000000000000
      0.100000000000      0.000000000000      0.000000000000
      0.200000000000      0.000000000000      0.000000000000
      0.300000000000      0.000000000000      0.000000000000
      0.400000000000      0.000000000000      0.000000000000
      0.500000000000      0.000000000000      0.000000000000
     -0.400000000000      0.000000000000      0.000000000000
     -0.300000000000      0.000000000000      0.000000000000
     -0.200000000000      0.000000000000      0.000000000000
     -0.100000000000      0.000000000000      0.000000000000
      0.000000000000      0.100000000000      0.000000000000
      0.100000000000      0.100000000000      0.000000000000
      0.200000000000      0.100000000000      0.000000000000
      0.300000000000      0.100000000000      0.000000000000
      0.400000000000      0.100000000000      0.000000000000
      0.500000000000      0.100000000000      0.000000000000
     -0.400000000000      0.100000000000      0.000000000000
     -0.300000000000      0.100000000000      0.000000000000
     -0.200000000000      0.100000000000      0.000000000000
     -0.100000000000      0.100000000000      0.000000000000
      0.000000000000      0.200000000000      0.000000000000
      0.100000000000      0.200000000000      0.000000000000
      0.200000000000      0.200000000000      0.000000000000
      0.300000000000      0.200000000000      0.000000000000
      0.400000000000      0.200000000000      0.000000000000
      0.500000000000      0.200000000000      0.000000000000
     -0.400000000000      0.200000000000      0.000000000000
     -0.300000000000      0.200000000000      0.000000000000
     -0.200000000000      0.200000000000      0.000000000000
     -0.100000000000      0.200000000000      0.000000000000
      0.000000000000      0.300000000000      0.000000000000
      0.100000000000      0.300000000000      0.000000000000
      0.200000000000      0.300000000000      0.000000000000
      0.300000000000      0.300000000000      0.000000000000
      0.400000000000      0.300000000000      0.000000000000
      0.500000000000      0.300000000000      0.000000000000
     -0.400000000000      0.300000000000      0.000000000000
     -0.300000000000      0.300000000000      0.000000000000
     -0.200000000000      0.300000000000      0.000000000000
     -0.100000000000      0.300000000000      0.000000000000
      0.000000000000      0.400000000000      0.000000000000
      0.100000000000      0.400000000000      0.000000000000
      0.200000000000      0.400000000000      0.000000000000
      0.300000000000      0.400000000000      0.000000000000
      0.400000000000      0.400000000000      0.000000000000
      0.500000000000      0.400000000000      0.000000000000
     -0.400000000000      0.400000000000      0.000000000000
     -0.300000000000      0.400000000000      0.000000000000
     -0.200000000000      0.400000000000      0.000000000000
     -0.100000000000      0.400000000000      0.000000000000
      0.000000000000      0.500000000000      0.000000000000
      0.100000000000      0.500000000000      0.000000000000
      0.200000000000      0.500000000000      0.000000000000
      0.300000000000      0.500000000000      0.000000000000
      0.400000000000      0.500000000000      0.000000000000
      0.500000000000      0.500000000000      0.000000000000
     -0.400000000000      0.500000000000      0.000000000000
     -0.300000000000      0.500000000000      0.000000000000
     -0.200000000000      0.500000000000      0.000000000000
     -0.100000000000      0.500000000000      0.000000000000
      0.000000000000     -0.400000000000      0.000000000000
      0.100000000000     -0.400000000000      0.000000000000
      0.200000000000     -0.400000000000      0.000000000000
      0.300000000000     -0.400000000000      0.000000000000
      0.400000000000     -0.400000000000      0.000000000000
      0.500000000000     -0.400000000000      0.000000000000
     -0.400000000000     -0.400000000000      0.000000000000
     -0.300000000000     -0.400000000000      0.000000000000
     -0.200000000000     -0.400000000000      0.000000000000
     -0.100000000000     -0.400000000000      0.000000000000
      0.000000000000     -0.300000000000      0.000000000000
      0.100000000000     -0.300000000000      0.000000000000
      0.200000000000     -0.300000000000      0.000000000000
      0.300000000000     -0.300000000000      0.000000000000
      0.400000000000     -0.300000000000      0.000000000000
      0.500000000000     -0.300000000000      0.000000000000
     -0.400000000000     -0.300000000000      0.000000000000
     -0.300000000000     -0.300000000000      0.000000000000
     -0.200000000000     -0.300000000000      0.000000000000
     -0.100000000000     -0.300000000000      0.000000000000
      0.000000000000     -0.200000000000      0.000000000000
      0.100000000000     -0.200000000000      0.000000000000
      0.200000000000     -0.200000000000      0.000000000000
      0.300000000000     -0.200000000000      0.000000000000
      0.400000000000     -0.200000000000      0.000000000000
      0.500000000000     -0.200000000000      0.000000000000
     -0.400000000000     -0.200000000000      0.000000000000
     -0.300000000000     -0.200000000000      0.000000000000
     -0.200000000000     -0.200000000000      0.000000000000
     -0.100000000000     -0.200000000000      0.000000000000
      0.000000000000     -0.100000000000      0.000000000000
      0.100000000000     -0.100000000000      0.000000000000
      0.200000000000     -0.100000000000      0.000000000000
      0.300000000000     -0.100000000000      0.000000000000
      0.400000000000     -0.100000000000      0.000000000000
      0.500000000000     -0.100000000000      0.000000000000
     -0.400000000000     -0.100000000000      0.000000000000
     -0.300000000000     -0.100000000000      0.000000000000
     -0.200000000000     -0.100000000000      0.000000000000
     -0.100000000000     -0.100000000000      0.000000000000
end kpoints
