# # # # # # # # # # # # # #    S H C   B E G I N S   # # # # # # # # # # # # # # 
fermi_energy_min = -5.5248446432143337 
fermi_energy_max = -1.4356131347837615
fermi_energy_step = 0.001
# shc_method = 'qiao'
shc_temp = 00

berry = true
berry_task = shc
berry_kmesh = 210 210 1
kubo_adpt_smr = false
kubo_adpt_smr_fac = 1.414
kubo_smr_fixed_en_width = 5e-3
berry_curv_unit = ang2
berry_curv_adpt_kmesh = 1 1 1
berry_curv_adpt_kmesh_thresh = 100000.0

shc_freq_scan = false
shc_alpha = 1
shc_beta = 2
shc_gamma = 3
# # # # # # # # # # # # # #    S H C   E N D S   # # # # # # # # # # # # # # 

# kmesh_tol = 1e-4
exclude_bands =  1 - 32
num_bands     =  102
num_wann      =  64
# VBM = -3.5248446432143337
# CBM = -3.4356131347837615
# Bandgap = 0.08923150843057215
dis_froz_max = -2.055335366267453
# fermi_energy = -3.4802288889990476
# dis_win_min  = v_dis_win_min 
# dis_win_max  = v_dis_win_max 

write_tb = .true.
write_hr = .true.
write_rmn = .true.
write_xyz = .true.
spinors = .true.
use_ws_distance = .true.
spn_formatted = .true.

dis_num_iter      = 10000
dis_conv_tol      = 1.0e-8
conv_tol          = 1.0e-8
conv_window       = 5
num_iter          = 10000
trial_step = 1.0

# bands_plot = true
# bands_num_points = 100
# restart = plot

Begin Unit_Cell_Cart
bohr
1.814193387451027E+001  1.919608174861865E-003  0.000000000000000E+000
1.334777193078092E+001  1.228685288998929E+001  0.000000000000000E+000
0.000000000000000E+000  0.000000000000000E+000  4.000733386604721E+001
End Unit_Cell_Cart

Begin Atoms_Cart
bohr
Hg        1.788870978296006E+001  2.248029525818073E+000  1.965577299247420E+001
Hg        1.333163562611010E+001  4.696436119686865E-001  2.035156107445095E+001
Hg        2.235889924021847E+001  7.366193972995044E+000  1.974646948470996E+001
O         2.305980897340044E+001  1.109975609546172E+001  2.110431289877888E+001
Hg        6.576313445852277E+000  1.207082046692838E+000  2.026086428533923E+001
O         2.167371545238816E+001  3.480915794836924E+000  1.890302086238859E+001
End Atoms_Cart

guiding_centres = .true.
Begin projections
Hg:S;D
O:S;P
End projections


mp_grid = 7 7 1
Begin kpoints
0.00000000          0.00000000          0.00000000        
0.00000000          0.14285714          0.00000000        
0.00000000          0.28571429          0.00000000        
0.00000000          0.42857143          0.00000000        
0.00000000          0.57142857          0.00000000        
0.00000000          0.71428571          0.00000000        
0.00000000          0.85714286          0.00000000        
0.14285714          0.00000000          0.00000000        
0.14285714          0.14285714          0.00000000        
0.14285714          0.28571429          0.00000000        
0.14285714          0.42857143          0.00000000        
0.14285714          0.57142857          0.00000000        
0.14285714          0.71428571          0.00000000        
0.14285714          0.85714286          0.00000000        
0.28571429          0.00000000          0.00000000        
0.28571429          0.14285714          0.00000000        
0.28571429          0.28571429          0.00000000        
0.28571429          0.42857143          0.00000000        
0.28571429          0.57142857          0.00000000        
0.28571429          0.71428571          0.00000000        
0.28571429          0.85714286          0.00000000        
0.42857143          0.00000000          0.00000000        
0.42857143          0.14285714          0.00000000        
0.42857143          0.28571429          0.00000000        
0.42857143          0.42857143          0.00000000        
0.42857143          0.57142857          0.00000000        
0.42857143          0.71428571          0.00000000        
0.42857143          0.85714286          0.00000000        
0.57142857          0.00000000          0.00000000        
0.57142857          0.14285714          0.00000000        
0.57142857          0.28571429          0.00000000        
0.57142857          0.42857143          0.00000000        
0.57142857          0.57142857          0.00000000        
0.57142857          0.71428571          0.00000000        
0.57142857          0.85714286          0.00000000        
0.71428571          0.00000000          0.00000000        
0.71428571          0.14285714          0.00000000        
0.71428571          0.28571429          0.00000000        
0.71428571          0.42857143          0.00000000        
0.71428571          0.57142857          0.00000000        
0.71428571          0.71428571          0.00000000        
0.71428571          0.85714286          0.00000000        
0.85714286          0.00000000          0.00000000        
0.85714286          0.14285714          0.00000000        
0.85714286          0.28571429          0.00000000        
0.85714286          0.42857143          0.00000000        
0.85714286          0.57142857          0.00000000        
0.85714286          0.71428571          0.00000000        
0.85714286          0.85714286          0.00000000        
End kpoints

