k-points along high symm Y-M-X-G-Y
40
line
fractional
0.00000000   0.50000000   0.00000000   Y
0.50000000   0.50000000   0.00000000   M 

0.50000000   0.50000000   0.00000000   M 
0.50000000   0.00000000   0.00000000   X 

0.50000000   0.00000000   0.00000000   X 
0.00000000   0.00000000   0.00000000   G 

0.00000000   0.00000000   0.00000000   G
0.00000000   0.50000000   0.00000000   Y 
