k-points for bandstructure G-M-K-G
20
line
reciprocal
0.00000  0.00000  0.00000    1
0.00000  0.50000  0.00000    1

0.00000  0.50000  0.00000    1
0.33333333333333  0.3333333333333  0.00000    1

0.33333333333333  0.3333333333333  0.00000    1
0.00000  0.00000  0.00000    1
