Bi                                      
   1.00000000000000     
     4.5599999999999996    0.0000000000000000    0.0000000000000000
     0.0000000000000000    4.8899999999999997    0.0000000000000000
     0.0000000000000000    0.0000000000000000   23.9073538933000016
   Bi
     4
Direct
  0.0000000000000000  0.0001966210245000  0.0539910585524545
  0.5000000000000000  0.5001966210244999  0.9460089414475454
  0.5000000000000000  0.4236033789755000  0.0743514813227650
  0.0000000000000000  0.9236033789754999  0.9256485186772352
 
  0.00000000E+00  0.00000000E+00  0.00000000E+00
  0.00000000E+00  0.00000000E+00  0.00000000E+00
  0.00000000E+00  0.00000000E+00  0.00000000E+00
  0.00000000E+00  0.00000000E+00  0.00000000E+00
