Hf Br Hf Br 
 1.0000000000000000
     1.7401794709000000   -3.0140792579000002    0.0000000000000000
     1.7401794709000000    3.0140792579000002    0.0000000000000000
     0.0000000000000000    0.0000000000000000   24.0847397074000007
 Hf  Br  
   2   2 
Cartesian
  1.7401794709000000  1.0046930859000001 -1.1320694889000000
  1.7401794709000000 -1.0046930859000001  1.1320694889000000
  0.0000000000000000  0.0000000000000000 -3.0392017929000001
  0.0000000000000000  0.0000000000000000  3.0392017929000001
