# # # # # # # # # # # # # #    S H C   B E G I N S   # # # # # # # # # # # # # # 
fermi_energy_min = -6.600167223070041 
fermi_energy_max = -2.600167223070041
fermi_energy_step = 0.001
# shc_method = 'qiao'
shc_temp = 300

berry = true
berry_task = shc
berry_kmesh = 360 360 1
kubo_adpt_smr = false
kubo_adpt_smr_fac = 1.414
kubo_smr_fixed_en_width = 2e-3
berry_curv_unit = ang2
berry_curv_adpt_kmesh = 1 1 1
berry_curv_adpt_kmesh_thresh = 100000.0

shc_freq_scan = false
shc_alpha = 1
shc_beta = 2
shc_gamma = 3
# # # # # # # # # # # # # #    S H C   E N D S   # # # # # # # # # # # # # # 

exclude_bands =  1 - 32
num_bands     =  48
num_wann      =  6
# Bandgap = -0.10081601247504235
dis_froz_max = -3.6001672230700406
# fermi_energy = -4.600167223070041
# dis_win_min  = v_dis_win_min 
# dis_win_max  = v_dis_win_max 

write_tb = .true.
write_hr = .true.
write_rmn = .true.
write_xyz = .true.
spinors = .true.
use_ws_distance = .true.
spn_formatted = .true.

dis_num_iter      = 20000
dis_conv_tol      = 1.0e-10
conv_tol          = 1.0e-10
conv_window       = 5
num_iter          = 20000
trial_step = 1.0

Begin Unit_Cell_Cart
bohr
7.193355724215492E+000  0.000000000000000E+000  0.000000000000000E+000
-3.596677862107745E+000  6.229628795629265E+000  0.000000000000000E+000
0.000000000000000E+000  0.000000000000000E+000  4.913287923111004E+001
End Unit_Cell_Cart

Begin Atoms_Cart
bohr
Y         -3.596678159698206E-010  4.153085863960497E+000 -2.682079481679641E+000
Br        0.000000000000000E+000  0.000000000000000E+000 -6.330871518557354E+000
Br        0.000000000000000E+000  0.000000000000000E+000  6.330871518557354E+000
Y         3.596677862467413E+000  2.076542931668766E+000  2.682079481679641E+000
End Atoms_Cart

guiding_centres = .true.
Begin projections
 c = 1.887581,  1.019300, -0.958188 : s
 c = 3.791347,  2.114384,  0.957457 : s
 c = 1.859137,  3.069039,  0.000674 : s
End projections

# restart = plot
# bands_plot = true
bands_num_points = 100
Begin kpoint_path
G  0.000000000  0.000000000  0.0    M  0.000000000  0.500000000  0.0
M  0.000000000  0.500000000  0.0    K  0.333333333  0.333333333  0.0
K  0.333333333  0.333333333  0.0    G  0.000000000  0.000000000  0.0
End kpoint_path

mp_grid = 12 12 1
Begin kpoints
0.00000000          0.00000000          0.00000000        
0.00000000          0.08333333          0.00000000        
0.00000000          0.16666667          0.00000000        
0.00000000          0.25000000          0.00000000        
0.00000000          0.33333333          0.00000000        
0.00000000          0.41666667          0.00000000        
0.00000000          0.50000000          0.00000000        
0.00000000          0.58333333          0.00000000        
0.00000000          0.66666667          0.00000000        
0.00000000          0.75000000          0.00000000        
0.00000000          0.83333333          0.00000000        
0.00000000          0.91666667          0.00000000        
0.08333333          0.00000000          0.00000000        
0.08333333          0.08333333          0.00000000        
0.08333333          0.16666667          0.00000000        
0.08333333          0.25000000          0.00000000        
0.08333333          0.33333333          0.00000000        
0.08333333          0.41666667          0.00000000        
0.08333333          0.50000000          0.00000000        
0.08333333          0.58333333          0.00000000        
0.08333333          0.66666667          0.00000000        
0.08333333          0.75000000          0.00000000        
0.08333333          0.83333333          0.00000000        
0.08333333          0.91666667          0.00000000        
0.16666667          0.00000000          0.00000000        
0.16666667          0.08333333          0.00000000        
0.16666667          0.16666667          0.00000000        
0.16666667          0.25000000          0.00000000        
0.16666667          0.33333333          0.00000000        
0.16666667          0.41666667          0.00000000        
0.16666667          0.50000000          0.00000000        
0.16666667          0.58333333          0.00000000        
0.16666667          0.66666667          0.00000000        
0.16666667          0.75000000          0.00000000        
0.16666667          0.83333333          0.00000000        
0.16666667          0.91666667          0.00000000        
0.25000000          0.00000000          0.00000000        
0.25000000          0.08333333          0.00000000        
0.25000000          0.16666667          0.00000000        
0.25000000          0.25000000          0.00000000        
0.25000000          0.33333333          0.00000000        
0.25000000          0.41666667          0.00000000        
0.25000000          0.50000000          0.00000000        
0.25000000          0.58333333          0.00000000        
0.25000000          0.66666667          0.00000000        
0.25000000          0.75000000          0.00000000        
0.25000000          0.83333333          0.00000000        
0.25000000          0.91666667          0.00000000        
0.33333333          0.00000000          0.00000000        
0.33333333          0.08333333          0.00000000        
0.33333333          0.16666667          0.00000000        
0.33333333          0.25000000          0.00000000        
0.33333333          0.33333333          0.00000000        
0.33333333          0.41666667          0.00000000        
0.33333333          0.50000000          0.00000000        
0.33333333          0.58333333          0.00000000        
0.33333333          0.66666667          0.00000000        
0.33333333          0.75000000          0.00000000        
0.33333333          0.83333333          0.00000000        
0.33333333          0.91666667          0.00000000        
0.41666667          0.00000000          0.00000000        
0.41666667          0.08333333          0.00000000        
0.41666667          0.16666667          0.00000000        
0.41666667          0.25000000          0.00000000        
0.41666667          0.33333333          0.00000000        
0.41666667          0.41666667          0.00000000        
0.41666667          0.50000000          0.00000000        
0.41666667          0.58333333          0.00000000        
0.41666667          0.66666667          0.00000000        
0.41666667          0.75000000          0.00000000        
0.41666667          0.83333333          0.00000000        
0.41666667          0.91666667          0.00000000        
0.50000000          0.00000000          0.00000000        
0.50000000          0.08333333          0.00000000        
0.50000000          0.16666667          0.00000000        
0.50000000          0.25000000          0.00000000        
0.50000000          0.33333333          0.00000000        
0.50000000          0.41666667          0.00000000        
0.50000000          0.50000000          0.00000000        
0.50000000          0.58333333          0.00000000        
0.50000000          0.66666667          0.00000000        
0.50000000          0.75000000          0.00000000        
0.50000000          0.83333333          0.00000000        
0.50000000          0.91666667          0.00000000        
0.58333333          0.00000000          0.00000000        
0.58333333          0.08333333          0.00000000        
0.58333333          0.16666667          0.00000000        
0.58333333          0.25000000          0.00000000        
0.58333333          0.33333333          0.00000000        
0.58333333          0.41666667          0.00000000        
0.58333333          0.50000000          0.00000000        
0.58333333          0.58333333          0.00000000        
0.58333333          0.66666667          0.00000000        
0.58333333          0.75000000          0.00000000        
0.58333333          0.83333333          0.00000000        
0.58333333          0.91666667          0.00000000        
0.66666667          0.00000000          0.00000000        
0.66666667          0.08333333          0.00000000        
0.66666667          0.16666667          0.00000000        
0.66666667          0.25000000          0.00000000        
0.66666667          0.33333333          0.00000000        
0.66666667          0.41666667          0.00000000        
0.66666667          0.50000000          0.00000000        
0.66666667          0.58333333          0.00000000        
0.66666667          0.66666667          0.00000000        
0.66666667          0.75000000          0.00000000        
0.66666667          0.83333333          0.00000000        
0.66666667          0.91666667          0.00000000        
0.75000000          0.00000000          0.00000000        
0.75000000          0.08333333          0.00000000        
0.75000000          0.16666667          0.00000000        
0.75000000          0.25000000          0.00000000        
0.75000000          0.33333333          0.00000000        
0.75000000          0.41666667          0.00000000        
0.75000000          0.50000000          0.00000000        
0.75000000          0.58333333          0.00000000        
0.75000000          0.66666667          0.00000000        
0.75000000          0.75000000          0.00000000        
0.75000000          0.83333333          0.00000000        
0.75000000          0.91666667          0.00000000        
0.83333333          0.00000000          0.00000000        
0.83333333          0.08333333          0.00000000        
0.83333333          0.16666667          0.00000000        
0.83333333          0.25000000          0.00000000        
0.83333333          0.33333333          0.00000000        
0.83333333          0.41666667          0.00000000        
0.83333333          0.50000000          0.00000000        
0.83333333          0.58333333          0.00000000        
0.83333333          0.66666667          0.00000000        
0.83333333          0.75000000          0.00000000        
0.83333333          0.83333333          0.00000000        
0.83333333          0.91666667          0.00000000        
0.91666667          0.00000000          0.00000000        
0.91666667          0.08333333          0.00000000        
0.91666667          0.16666667          0.00000000        
0.91666667          0.25000000          0.00000000        
0.91666667          0.33333333          0.00000000        
0.91666667          0.41666667          0.00000000        
0.91666667          0.50000000          0.00000000        
0.91666667          0.58333333          0.00000000        
0.91666667          0.66666667          0.00000000        
0.91666667          0.75000000          0.00000000        
0.91666667          0.83333333          0.00000000        
0.91666667          0.91666667          0.00000000        
End kpoints

